c A SAT instance generated from a 3-CNF formula that had 20 clauses and 10 variables
p cnf 10 20
1 -9 -2 0
2 -5 -6 0
-2 -4 -7 0
-10 1 -2 0
-5 -2 4 0
6 -1 4 0
-3 9 -7 0
-9 10 3 0
-1 5 -4 0
-6 -5 -1 0
7 8 -10 0
9 -3 -2 0
3 10 -4 0
8 -5 1 0
3 4 -5 0
-2 1 -7 0
-3 -1 -9 0
3 -9 7 0
-5 -9 -7 0
-9 5 -3 0
